Minimize 
 obj: +1 z
 Subject to
cobj: -1 z +64 y#0 +64 y#1 +128 y#2 +64 y#3 +128 y#4 +64 y#5 +128 y#6 +64 y#7 +128 y#8 +64 y#9 +128 y#10 +64 y#11 +128 y#12 +64 y#13 +128 y#14 +64 y#15 +128 y#16 +64 y#17 +128 y#18 +64 y#19 +128 y#20 +64 y#21 +128 y#22 +64 y#23 +128 y#24 +64 y#25 +128 y#26 +64 y#27 +128 y#28 +64 y#29 +128 y#30 +64 y#31 +64 y#32 -32 y#33 -64 y#34 -32 y#35 -32 y#36 -32 y#37 -96 y#38 -96 y#39 -32 y#40 -96 y#41 -32 y#42 -128 y#43 -96 y#44 -32 y#45 -96 y#46 -32 y#47 -128 y#48 -96 y#49 -32 y#50 -96 y#51 -32 y#52 -128 y#53 -96 y#54 -32 y#55 -96 y#56 -32 y#57 -128 y#58 -96 y#59 -32 y#60 -96 y#61 -32 y#62 -128 y#63 -96 y#64 -32 y#65 -96 y#66 -32 y#67 -128 y#68 -96 y#69 -32 y#70 -96 y#71 -32 y#72 -128 y#73 -96 y#74 -32 y#75 -96 y#76 -32 y#77 -128 y#78 -96 y#79 -32 y#80 -96 y#81 -32 y#82 -128 y#83 -96 y#84 -32 y#85 -96 y#86 -32 y#87 -128 y#88 -96 y#89 -32 y#90 -96 y#91 -32 y#92 -128 y#93 -96 y#94 -32 y#95 -96 y#96 -32 y#97 -128 y#98 -96 y#99 -32 y#100 -96 y#101 -32 y#102 -128 y#103 -96 y#104 -32 y#105 -96 y#106 -32 y#107 -128 y#108 -96 y#109 -32 y#110 -96 y#111 -32 y#112 -96 y#113 -32 y#114 -64 y#115 -32 y#116 +32 y#117 +24 y#118 +32 y#119 +24 y#120 +64 y#121 +80 y#122 +64 y#123 +24 y#124 +96 y#125 +104 y#126 +64 y#127 +24 y#128 +128 y#129 +104 y#130 +64 y#131 +24 y#132 +128 y#133 +104 y#134 +64 y#135 +24 y#136 +128 y#137 +104 y#138 +64 y#139 +24 y#140 +128 y#141 +104 y#142 +64 y#143 +24 y#144 +128 y#145 +104 y#146 +64 y#147 +24 y#148 +128 y#149 +104 y#150 +64 y#151 +24 y#152 +128 y#153 +104 y#154 +64 y#155 +24 y#156 +128 y#157 +104 y#158 +64 y#159 +24 y#160 +128 y#161 +104 y#162 +64 y#163 +24 y#164 +128 y#165 +104 y#166 +64 y#167 +24 y#168 +128 y#169 +104 y#170 +64 y#171 +24 y#172 +128 y#173 +104 y#174 +64 y#175 +24 y#176 +128 y#177 +104 y#178 +64 y#179 +24 y#180 +96 y#181 +80 y#182 +32 y#183 +64 y#184 +24 y#185 +32 y#186 -24 y#187 -52 y#188 -76 y#189 -104 y#190 -128 y#191 -128 y#192 -128 y#193 -128 y#194 -128 y#195 -128 y#196 -128 y#197 -128 y#198 -128 y#199 -128 y#200 -128 y#201 -128 y#202 -104 y#203 -76 y#204 -52 y#205 -24 y#206 <= 0
cst0: y#0 - x#1 <= 0
cst1: y#0 - x#2 <= 0
cst2: y#0 - x#3 <= 0
cst3: y#0 - x#4 <= 0
cst4: x#1 + x#2 + x#3 + x#4 - y#0 <= 3
cst5: y#1 - x#1 <= 0
cst6: y#1 - x#2 <= 0
cst7: y#1 - x#4 <= 0
cst8: y#1 - x#5 <= 0
cst9: x#1 + x#2 + x#4 + x#5 - y#1 <= 3
cst10: y#2 - x#2 <= 0
cst11: y#2 - x#3 <= 0
cst12: y#2 - x#4 <= 0
cst13: y#2 - x#5 <= 0
cst14: x#2 + x#3 + x#4 + x#5 - y#2 <= 3
cst15: y#3 - x#2 <= 0
cst16: y#3 - x#3 <= 0
cst17: y#3 - x#5 <= 0
cst18: y#3 - x#6 <= 0
cst19: x#2 + x#3 + x#5 + x#6 - y#3 <= 3
cst20: y#4 - x#3 <= 0
cst21: y#4 - x#4 <= 0
cst22: y#4 - x#5 <= 0
cst23: y#4 - x#6 <= 0
cst24: x#3 + x#4 + x#5 + x#6 - y#4 <= 3
cst25: y#5 - x#3 <= 0
cst26: y#5 - x#4 <= 0
cst27: y#5 - x#6 <= 0
cst28: y#5 - x#7 <= 0
cst29: x#3 + x#4 + x#6 + x#7 - y#5 <= 3
cst30: y#6 - x#4 <= 0
cst31: y#6 - x#5 <= 0
cst32: y#6 - x#6 <= 0
cst33: y#6 - x#7 <= 0
cst34: x#4 + x#5 + x#6 + x#7 - y#6 <= 3
cst35: y#7 - x#4 <= 0
cst36: y#7 - x#5 <= 0
cst37: y#7 - x#7 <= 0
cst38: y#7 - x#8 <= 0
cst39: x#4 + x#5 + x#7 + x#8 - y#7 <= 3
cst40: y#8 - x#5 <= 0
cst41: y#8 - x#6 <= 0
cst42: y#8 - x#7 <= 0
cst43: y#8 - x#8 <= 0
cst44: x#5 + x#6 + x#7 + x#8 - y#8 <= 3
cst45: y#9 - x#5 <= 0
cst46: y#9 - x#6 <= 0
cst47: y#9 - x#8 <= 0
cst48: y#9 - x#9 <= 0
cst49: x#5 + x#6 + x#8 + x#9 - y#9 <= 3
cst50: y#10 - x#6 <= 0
cst51: y#10 - x#7 <= 0
cst52: y#10 - x#8 <= 0
cst53: y#10 - x#9 <= 0
cst54: x#6 + x#7 + x#8 + x#9 - y#10 <= 3
cst55: y#11 - x#6 <= 0
cst56: y#11 - x#7 <= 0
cst57: y#11 - x#9 <= 0
cst58: y#11 - x#10 <= 0
cst59: x#6 + x#7 + x#9 + x#10 - y#11 <= 3
cst60: y#12 - x#7 <= 0
cst61: y#12 - x#8 <= 0
cst62: y#12 - x#9 <= 0
cst63: y#12 - x#10 <= 0
cst64: x#7 + x#8 + x#9 + x#10 - y#12 <= 3
cst65: y#13 - x#7 <= 0
cst66: y#13 - x#8 <= 0
cst67: y#13 - x#10 <= 0
cst68: y#13 - x#11 <= 0
cst69: x#7 + x#8 + x#10 + x#11 - y#13 <= 3
cst70: y#14 - x#8 <= 0
cst71: y#14 - x#9 <= 0
cst72: y#14 - x#10 <= 0
cst73: y#14 - x#11 <= 0
cst74: x#8 + x#9 + x#10 + x#11 - y#14 <= 3
cst75: y#15 - x#8 <= 0
cst76: y#15 - x#9 <= 0
cst77: y#15 - x#11 <= 0
cst78: y#15 - x#12 <= 0
cst79: x#8 + x#9 + x#11 + x#12 - y#15 <= 3
cst80: y#16 - x#9 <= 0
cst81: y#16 - x#10 <= 0
cst82: y#16 - x#11 <= 0
cst83: y#16 - x#12 <= 0
cst84: x#9 + x#10 + x#11 + x#12 - y#16 <= 3
cst85: y#17 - x#9 <= 0
cst86: y#17 - x#10 <= 0
cst87: y#17 - x#12 <= 0
cst88: y#17 - x#13 <= 0
cst89: x#9 + x#10 + x#12 + x#13 - y#17 <= 3
cst90: y#18 - x#10 <= 0
cst91: y#18 - x#11 <= 0
cst92: y#18 - x#12 <= 0
cst93: y#18 - x#13 <= 0
cst94: x#10 + x#11 + x#12 + x#13 - y#18 <= 3
cst95: y#19 - x#10 <= 0
cst96: y#19 - x#11 <= 0
cst97: y#19 - x#13 <= 0
cst98: y#19 - x#14 <= 0
cst99: x#10 + x#11 + x#13 + x#14 - y#19 <= 3
cst100: y#20 - x#11 <= 0
cst101: y#20 - x#12 <= 0
cst102: y#20 - x#13 <= 0
cst103: y#20 - x#14 <= 0
cst104: x#11 + x#12 + x#13 + x#14 - y#20 <= 3
cst105: y#21 - x#11 <= 0
cst106: y#21 - x#12 <= 0
cst107: y#21 - x#14 <= 0
cst108: y#21 - x#15 <= 0
cst109: x#11 + x#12 + x#14 + x#15 - y#21 <= 3
cst110: y#22 - x#12 <= 0
cst111: y#22 - x#13 <= 0
cst112: y#22 - x#14 <= 0
cst113: y#22 - x#15 <= 0
cst114: x#12 + x#13 + x#14 + x#15 - y#22 <= 3
cst115: y#23 - x#12 <= 0
cst116: y#23 - x#13 <= 0
cst117: y#23 - x#15 <= 0
cst118: y#23 - x#16 <= 0
cst119: x#12 + x#13 + x#15 + x#16 - y#23 <= 3
cst120: y#24 - x#13 <= 0
cst121: y#24 - x#14 <= 0
cst122: y#24 - x#15 <= 0
cst123: y#24 - x#16 <= 0
cst124: x#13 + x#14 + x#15 + x#16 - y#24 <= 3
cst125: y#25 - x#13 <= 0
cst126: y#25 - x#14 <= 0
cst127: y#25 - x#16 <= 0
cst128: y#25 - x#17 <= 0
cst129: x#13 + x#14 + x#16 + x#17 - y#25 <= 3
cst130: y#26 - x#14 <= 0
cst131: y#26 - x#15 <= 0
cst132: y#26 - x#16 <= 0
cst133: y#26 - x#17 <= 0
cst134: x#14 + x#15 + x#16 + x#17 - y#26 <= 3
cst135: y#27 - x#14 <= 0
cst136: y#27 - x#15 <= 0
cst137: y#27 - x#17 <= 0
cst138: y#27 - x#18 <= 0
cst139: x#14 + x#15 + x#17 + x#18 - y#27 <= 3
cst140: y#28 - x#15 <= 0
cst141: y#28 - x#16 <= 0
cst142: y#28 - x#17 <= 0
cst143: y#28 - x#18 <= 0
cst144: x#15 + x#16 + x#17 + x#18 - y#28 <= 3
cst145: y#29 - x#15 <= 0
cst146: y#29 - x#16 <= 0
cst147: y#29 - x#18 <= 0
cst148: y#29 - x#19 <= 0
cst149: x#15 + x#16 + x#18 + x#19 - y#29 <= 3
cst150: y#30 - x#16 <= 0
cst151: y#30 - x#17 <= 0
cst152: y#30 - x#18 <= 0
cst153: y#30 - x#19 <= 0
cst154: x#16 + x#17 + x#18 + x#19 - y#30 <= 3
cst155: y#31 - x#16 <= 0
cst156: y#31 - x#17 <= 0
cst157: y#31 - x#19 <= 0
cst158: y#31 - x#20 <= 0
cst159: x#16 + x#17 + x#19 + x#20 - y#31 <= 3
cst160: y#32 - x#17 <= 0
cst161: y#32 - x#18 <= 0
cst162: y#32 - x#19 <= 0
cst163: y#32 - x#20 <= 0
cst164: x#17 + x#18 + x#19 + x#20 - y#32 <= 3
cst165: y#33 - x#1 <= 0
cst166: y#33 - x#2 <= 0
cst167: y#33 - x#3 <= 0
cst168: x#1 + x#2 + x#3 - y#33 <= 2
cst169: y#34 - x#1 <= 0
cst170: y#34 - x#2 <= 0
cst171: y#34 - x#4 <= 0
cst172: x#1 + x#2 + x#4 - y#34 <= 2
cst173: y#35 - x#1 <= 0
cst174: y#35 - x#2 <= 0
cst175: y#35 - x#5 <= 0
cst176: x#1 + x#2 + x#5 - y#35 <= 2
cst177: y#36 - x#1 <= 0
cst178: y#36 - x#3 <= 0
cst179: y#36 - x#4 <= 0
cst180: x#1 + x#3 + x#4 - y#36 <= 2
cst181: y#37 - x#1 <= 0
cst182: y#37 - x#4 <= 0
cst183: y#37 - x#5 <= 0
cst184: x#1 + x#4 + x#5 - y#37 <= 2
cst185: y#38 - x#2 <= 0
cst186: y#38 - x#3 <= 0
cst187: y#38 - x#4 <= 0
cst188: x#2 + x#3 + x#4 - y#38 <= 2
cst189: y#39 - x#2 <= 0
cst190: y#39 - x#3 <= 0
cst191: y#39 - x#5 <= 0
cst192: x#2 + x#3 + x#5 - y#39 <= 2
cst193: y#40 - x#2 <= 0
cst194: y#40 - x#3 <= 0
cst195: y#40 - x#6 <= 0
cst196: x#2 + x#3 + x#6 - y#40 <= 2
cst197: y#41 - x#2 <= 0
cst198: y#41 - x#4 <= 0
cst199: y#41 - x#5 <= 0
cst200: x#2 + x#4 + x#5 - y#41 <= 2
cst201: y#42 - x#2 <= 0
cst202: y#42 - x#5 <= 0
cst203: y#42 - x#6 <= 0
cst204: x#2 + x#5 + x#6 - y#42 <= 2
cst205: y#43 - x#3 <= 0
cst206: y#43 - x#4 <= 0
cst207: y#43 - x#5 <= 0
cst208: x#3 + x#4 + x#5 - y#43 <= 2
cst209: y#44 - x#3 <= 0
cst210: y#44 - x#4 <= 0
cst211: y#44 - x#6 <= 0
cst212: x#3 + x#4 + x#6 - y#44 <= 2
cst213: y#45 - x#3 <= 0
cst214: y#45 - x#4 <= 0
cst215: y#45 - x#7 <= 0
cst216: x#3 + x#4 + x#7 - y#45 <= 2
cst217: y#46 - x#3 <= 0
cst218: y#46 - x#5 <= 0
cst219: y#46 - x#6 <= 0
cst220: x#3 + x#5 + x#6 - y#46 <= 2
cst221: y#47 - x#3 <= 0
cst222: y#47 - x#6 <= 0
cst223: y#47 - x#7 <= 0
cst224: x#3 + x#6 + x#7 - y#47 <= 2
cst225: y#48 - x#4 <= 0
cst226: y#48 - x#5 <= 0
cst227: y#48 - x#6 <= 0
cst228: x#4 + x#5 + x#6 - y#48 <= 2
cst229: y#49 - x#4 <= 0
cst230: y#49 - x#5 <= 0
cst231: y#49 - x#7 <= 0
cst232: x#4 + x#5 + x#7 - y#49 <= 2
cst233: y#50 - x#4 <= 0
cst234: y#50 - x#5 <= 0
cst235: y#50 - x#8 <= 0
cst236: x#4 + x#5 + x#8 - y#50 <= 2
cst237: y#51 - x#4 <= 0
cst238: y#51 - x#6 <= 0
cst239: y#51 - x#7 <= 0
cst240: x#4 + x#6 + x#7 - y#51 <= 2
cst241: y#52 - x#4 <= 0
cst242: y#52 - x#7 <= 0
cst243: y#52 - x#8 <= 0
cst244: x#4 + x#7 + x#8 - y#52 <= 2
cst245: y#53 - x#5 <= 0
cst246: y#53 - x#6 <= 0
cst247: y#53 - x#7 <= 0
cst248: x#5 + x#6 + x#7 - y#53 <= 2
cst249: y#54 - x#5 <= 0
cst250: y#54 - x#6 <= 0
cst251: y#54 - x#8 <= 0
cst252: x#5 + x#6 + x#8 - y#54 <= 2
cst253: y#55 - x#5 <= 0
cst254: y#55 - x#6 <= 0
cst255: y#55 - x#9 <= 0
cst256: x#5 + x#6 + x#9 - y#55 <= 2
cst257: y#56 - x#5 <= 0
cst258: y#56 - x#7 <= 0
cst259: y#56 - x#8 <= 0
cst260: x#5 + x#7 + x#8 - y#56 <= 2
cst261: y#57 - x#5 <= 0
cst262: y#57 - x#8 <= 0
cst263: y#57 - x#9 <= 0
cst264: x#5 + x#8 + x#9 - y#57 <= 2
cst265: y#58 - x#6 <= 0
cst266: y#58 - x#7 <= 0
cst267: y#58 - x#8 <= 0
cst268: x#6 + x#7 + x#8 - y#58 <= 2
cst269: y#59 - x#6 <= 0
cst270: y#59 - x#7 <= 0
cst271: y#59 - x#9 <= 0
cst272: x#6 + x#7 + x#9 - y#59 <= 2
cst273: y#60 - x#6 <= 0
cst274: y#60 - x#7 <= 0
cst275: y#60 - x#10 <= 0
cst276: x#6 + x#7 + x#10 - y#60 <= 2
cst277: y#61 - x#6 <= 0
cst278: y#61 - x#8 <= 0
cst279: y#61 - x#9 <= 0
cst280: x#6 + x#8 + x#9 - y#61 <= 2
cst281: y#62 - x#6 <= 0
cst282: y#62 - x#9 <= 0
cst283: y#62 - x#10 <= 0
cst284: x#6 + x#9 + x#10 - y#62 <= 2
cst285: y#63 - x#7 <= 0
cst286: y#63 - x#8 <= 0
cst287: y#63 - x#9 <= 0
cst288: x#7 + x#8 + x#9 - y#63 <= 2
cst289: y#64 - x#7 <= 0
cst290: y#64 - x#8 <= 0
cst291: y#64 - x#10 <= 0
cst292: x#7 + x#8 + x#10 - y#64 <= 2
cst293: y#65 - x#7 <= 0
cst294: y#65 - x#8 <= 0
cst295: y#65 - x#11 <= 0
cst296: x#7 + x#8 + x#11 - y#65 <= 2
cst297: y#66 - x#7 <= 0
cst298: y#66 - x#9 <= 0
cst299: y#66 - x#10 <= 0
cst300: x#7 + x#9 + x#10 - y#66 <= 2
cst301: y#67 - x#7 <= 0
cst302: y#67 - x#10 <= 0
cst303: y#67 - x#11 <= 0
cst304: x#7 + x#10 + x#11 - y#67 <= 2
cst305: y#68 - x#8 <= 0
cst306: y#68 - x#9 <= 0
cst307: y#68 - x#10 <= 0
cst308: x#8 + x#9 + x#10 - y#68 <= 2
cst309: y#69 - x#8 <= 0
cst310: y#69 - x#9 <= 0
cst311: y#69 - x#11 <= 0
cst312: x#8 + x#9 + x#11 - y#69 <= 2
cst313: y#70 - x#8 <= 0
cst314: y#70 - x#9 <= 0
cst315: y#70 - x#12 <= 0
cst316: x#8 + x#9 + x#12 - y#70 <= 2
cst317: y#71 - x#8 <= 0
cst318: y#71 - x#10 <= 0
cst319: y#71 - x#11 <= 0
cst320: x#8 + x#10 + x#11 - y#71 <= 2
cst321: y#72 - x#8 <= 0
cst322: y#72 - x#11 <= 0
cst323: y#72 - x#12 <= 0
cst324: x#8 + x#11 + x#12 - y#72 <= 2
cst325: y#73 - x#9 <= 0
cst326: y#73 - x#10 <= 0
cst327: y#73 - x#11 <= 0
cst328: x#9 + x#10 + x#11 - y#73 <= 2
cst329: y#74 - x#9 <= 0
cst330: y#74 - x#10 <= 0
cst331: y#74 - x#12 <= 0
cst332: x#9 + x#10 + x#12 - y#74 <= 2
cst333: y#75 - x#9 <= 0
cst334: y#75 - x#10 <= 0
cst335: y#75 - x#13 <= 0
cst336: x#9 + x#10 + x#13 - y#75 <= 2
cst337: y#76 - x#9 <= 0
cst338: y#76 - x#11 <= 0
cst339: y#76 - x#12 <= 0
cst340: x#9 + x#11 + x#12 - y#76 <= 2
cst341: y#77 - x#9 <= 0
cst342: y#77 - x#12 <= 0
cst343: y#77 - x#13 <= 0
cst344: x#9 + x#12 + x#13 - y#77 <= 2
cst345: y#78 - x#10 <= 0
cst346: y#78 - x#11 <= 0
cst347: y#78 - x#12 <= 0
cst348: x#10 + x#11 + x#12 - y#78 <= 2
cst349: y#79 - x#10 <= 0
cst350: y#79 - x#11 <= 0
cst351: y#79 - x#13 <= 0
cst352: x#10 + x#11 + x#13 - y#79 <= 2
cst353: y#80 - x#10 <= 0
cst354: y#80 - x#11 <= 0
cst355: y#80 - x#14 <= 0
cst356: x#10 + x#11 + x#14 - y#80 <= 2
cst357: y#81 - x#10 <= 0
cst358: y#81 - x#12 <= 0
cst359: y#81 - x#13 <= 0
cst360: x#10 + x#12 + x#13 - y#81 <= 2
cst361: y#82 - x#10 <= 0
cst362: y#82 - x#13 <= 0
cst363: y#82 - x#14 <= 0
cst364: x#10 + x#13 + x#14 - y#82 <= 2
cst365: y#83 - x#11 <= 0
cst366: y#83 - x#12 <= 0
cst367: y#83 - x#13 <= 0
cst368: x#11 + x#12 + x#13 - y#83 <= 2
cst369: y#84 - x#11 <= 0
cst370: y#84 - x#12 <= 0
cst371: y#84 - x#14 <= 0
cst372: x#11 + x#12 + x#14 - y#84 <= 2
cst373: y#85 - x#11 <= 0
cst374: y#85 - x#12 <= 0
cst375: y#85 - x#15 <= 0
cst376: x#11 + x#12 + x#15 - y#85 <= 2
cst377: y#86 - x#11 <= 0
cst378: y#86 - x#13 <= 0
cst379: y#86 - x#14 <= 0
cst380: x#11 + x#13 + x#14 - y#86 <= 2
cst381: y#87 - x#11 <= 0
cst382: y#87 - x#14 <= 0
cst383: y#87 - x#15 <= 0
cst384: x#11 + x#14 + x#15 - y#87 <= 2
cst385: y#88 - x#12 <= 0
cst386: y#88 - x#13 <= 0
cst387: y#88 - x#14 <= 0
cst388: x#12 + x#13 + x#14 - y#88 <= 2
cst389: y#89 - x#12 <= 0
cst390: y#89 - x#13 <= 0
cst391: y#89 - x#15 <= 0
cst392: x#12 + x#13 + x#15 - y#89 <= 2
cst393: y#90 - x#12 <= 0
cst394: y#90 - x#13 <= 0
cst395: y#90 - x#16 <= 0
cst396: x#12 + x#13 + x#16 - y#90 <= 2
cst397: y#91 - x#12 <= 0
cst398: y#91 - x#14 <= 0
cst399: y#91 - x#15 <= 0
cst400: x#12 + x#14 + x#15 - y#91 <= 2
cst401: y#92 - x#12 <= 0
cst402: y#92 - x#15 <= 0
cst403: y#92 - x#16 <= 0
cst404: x#12 + x#15 + x#16 - y#92 <= 2
cst405: y#93 - x#13 <= 0
cst406: y#93 - x#14 <= 0
cst407: y#93 - x#15 <= 0
cst408: x#13 + x#14 + x#15 - y#93 <= 2
cst409: y#94 - x#13 <= 0
cst410: y#94 - x#14 <= 0
cst411: y#94 - x#16 <= 0
cst412: x#13 + x#14 + x#16 - y#94 <= 2
cst413: y#95 - x#13 <= 0
cst414: y#95 - x#14 <= 0
cst415: y#95 - x#17 <= 0
cst416: x#13 + x#14 + x#17 - y#95 <= 2
cst417: y#96 - x#13 <= 0
cst418: y#96 - x#15 <= 0
cst419: y#96 - x#16 <= 0
cst420: x#13 + x#15 + x#16 - y#96 <= 2
cst421: y#97 - x#13 <= 0
cst422: y#97 - x#16 <= 0
cst423: y#97 - x#17 <= 0
cst424: x#13 + x#16 + x#17 - y#97 <= 2
cst425: y#98 - x#14 <= 0
cst426: y#98 - x#15 <= 0
cst427: y#98 - x#16 <= 0
cst428: x#14 + x#15 + x#16 - y#98 <= 2
cst429: y#99 - x#14 <= 0
cst430: y#99 - x#15 <= 0
cst431: y#99 - x#17 <= 0
cst432: x#14 + x#15 + x#17 - y#99 <= 2
cst433: y#100 - x#14 <= 0
cst434: y#100 - x#15 <= 0
cst435: y#100 - x#18 <= 0
cst436: x#14 + x#15 + x#18 - y#100 <= 2
cst437: y#101 - x#14 <= 0
cst438: y#101 - x#16 <= 0
cst439: y#101 - x#17 <= 0
cst440: x#14 + x#16 + x#17 - y#101 <= 2
cst441: y#102 - x#14 <= 0
cst442: y#102 - x#17 <= 0
cst443: y#102 - x#18 <= 0
cst444: x#14 + x#17 + x#18 - y#102 <= 2
cst445: y#103 - x#15 <= 0
cst446: y#103 - x#16 <= 0
cst447: y#103 - x#17 <= 0
cst448: x#15 + x#16 + x#17 - y#103 <= 2
cst449: y#104 - x#15 <= 0
cst450: y#104 - x#16 <= 0
cst451: y#104 - x#18 <= 0
cst452: x#15 + x#16 + x#18 - y#104 <= 2
cst453: y#105 - x#15 <= 0
cst454: y#105 - x#16 <= 0
cst455: y#105 - x#19 <= 0
cst456: x#15 + x#16 + x#19 - y#105 <= 2
cst457: y#106 - x#15 <= 0
cst458: y#106 - x#17 <= 0
cst459: y#106 - x#18 <= 0
cst460: x#15 + x#17 + x#18 - y#106 <= 2
cst461: y#107 - x#15 <= 0
cst462: y#107 - x#18 <= 0
cst463: y#107 - x#19 <= 0
cst464: x#15 + x#18 + x#19 - y#107 <= 2
cst465: y#108 - x#16 <= 0
cst466: y#108 - x#17 <= 0
cst467: y#108 - x#18 <= 0
cst468: x#16 + x#17 + x#18 - y#108 <= 2
cst469: y#109 - x#16 <= 0
cst470: y#109 - x#17 <= 0
cst471: y#109 - x#19 <= 0
cst472: x#16 + x#17 + x#19 - y#109 <= 2
cst473: y#110 - x#16 <= 0
cst474: y#110 - x#17 <= 0
cst475: y#110 - x#20 <= 0
cst476: x#16 + x#17 + x#20 - y#110 <= 2
cst477: y#111 - x#16 <= 0
cst478: y#111 - x#18 <= 0
cst479: y#111 - x#19 <= 0
cst480: x#16 + x#18 + x#19 - y#111 <= 2
cst481: y#112 - x#16 <= 0
cst482: y#112 - x#19 <= 0
cst483: y#112 - x#20 <= 0
cst484: x#16 + x#19 + x#20 - y#112 <= 2
cst485: y#113 - x#17 <= 0
cst486: y#113 - x#18 <= 0
cst487: y#113 - x#19 <= 0
cst488: x#17 + x#18 + x#19 - y#113 <= 2
cst489: y#114 - x#17 <= 0
cst490: y#114 - x#18 <= 0
cst491: y#114 - x#20 <= 0
cst492: x#17 + x#18 + x#20 - y#114 <= 2
cst493: y#115 - x#17 <= 0
cst494: y#115 - x#19 <= 0
cst495: y#115 - x#20 <= 0
cst496: x#17 + x#19 + x#20 - y#115 <= 2
cst497: y#116 - x#18 <= 0
cst498: y#116 - x#19 <= 0
cst499: y#116 - x#20 <= 0
cst500: x#18 + x#19 + x#20 - y#116 <= 2
cst501: y#117 - x#1 <= 0
cst502: y#117 - x#2 <= 0
cst503: x#1 + x#2 - y#117 <= 1
cst504: y#118 - x#1 <= 0
cst505: y#118 - x#3 <= 0
cst506: x#1 + x#3 - y#118 <= 1
cst507: y#119 - x#1 <= 0
cst508: y#119 - x#4 <= 0
cst509: x#1 + x#4 - y#119 <= 1
cst510: y#120 - x#1 <= 0
cst511: y#120 - x#5 <= 0
cst512: x#1 + x#5 - y#120 <= 1
cst513: y#121 - x#2 <= 0
cst514: y#121 - x#3 <= 0
cst515: x#2 + x#3 - y#121 <= 1
cst516: y#122 - x#2 <= 0
cst517: y#122 - x#4 <= 0
cst518: x#2 + x#4 - y#122 <= 1
cst519: y#123 - x#2 <= 0
cst520: y#123 - x#5 <= 0
cst521: x#2 + x#5 - y#123 <= 1
cst522: y#124 - x#2 <= 0
cst523: y#124 - x#6 <= 0
cst524: x#2 + x#6 - y#124 <= 1
cst525: y#125 - x#3 <= 0
cst526: y#125 - x#4 <= 0
cst527: x#3 + x#4 - y#125 <= 1
cst528: y#126 - x#3 <= 0
cst529: y#126 - x#5 <= 0
cst530: x#3 + x#5 - y#126 <= 1
cst531: y#127 - x#3 <= 0
cst532: y#127 - x#6 <= 0
cst533: x#3 + x#6 - y#127 <= 1
cst534: y#128 - x#3 <= 0
cst535: y#128 - x#7 <= 0
cst536: x#3 + x#7 - y#128 <= 1
cst537: y#129 - x#4 <= 0
cst538: y#129 - x#5 <= 0
cst539: x#4 + x#5 - y#129 <= 1
cst540: y#130 - x#4 <= 0
cst541: y#130 - x#6 <= 0
cst542: x#4 + x#6 - y#130 <= 1
cst543: y#131 - x#4 <= 0
cst544: y#131 - x#7 <= 0
cst545: x#4 + x#7 - y#131 <= 1
cst546: y#132 - x#4 <= 0
cst547: y#132 - x#8 <= 0
cst548: x#4 + x#8 - y#132 <= 1
cst549: y#133 - x#5 <= 0
cst550: y#133 - x#6 <= 0
cst551: x#5 + x#6 - y#133 <= 1
cst552: y#134 - x#5 <= 0
cst553: y#134 - x#7 <= 0
cst554: x#5 + x#7 - y#134 <= 1
cst555: y#135 - x#5 <= 0
cst556: y#135 - x#8 <= 0
cst557: x#5 + x#8 - y#135 <= 1
cst558: y#136 - x#5 <= 0
cst559: y#136 - x#9 <= 0
cst560: x#5 + x#9 - y#136 <= 1
cst561: y#137 - x#6 <= 0
cst562: y#137 - x#7 <= 0
cst563: x#6 + x#7 - y#137 <= 1
cst564: y#138 - x#6 <= 0
cst565: y#138 - x#8 <= 0
cst566: x#6 + x#8 - y#138 <= 1
cst567: y#139 - x#6 <= 0
cst568: y#139 - x#9 <= 0
cst569: x#6 + x#9 - y#139 <= 1
cst570: y#140 - x#6 <= 0
cst571: y#140 - x#10 <= 0
cst572: x#6 + x#10 - y#140 <= 1
cst573: y#141 - x#7 <= 0
cst574: y#141 - x#8 <= 0
cst575: x#7 + x#8 - y#141 <= 1
cst576: y#142 - x#7 <= 0
cst577: y#142 - x#9 <= 0
cst578: x#7 + x#9 - y#142 <= 1
cst579: y#143 - x#7 <= 0
cst580: y#143 - x#10 <= 0
cst581: x#7 + x#10 - y#143 <= 1
cst582: y#144 - x#7 <= 0
cst583: y#144 - x#11 <= 0
cst584: x#7 + x#11 - y#144 <= 1
cst585: y#145 - x#8 <= 0
cst586: y#145 - x#9 <= 0
cst587: x#8 + x#9 - y#145 <= 1
cst588: y#146 - x#8 <= 0
cst589: y#146 - x#10 <= 0
cst590: x#8 + x#10 - y#146 <= 1
cst591: y#147 - x#8 <= 0
cst592: y#147 - x#11 <= 0
cst593: x#8 + x#11 - y#147 <= 1
cst594: y#148 - x#8 <= 0
cst595: y#148 - x#12 <= 0
cst596: x#8 + x#12 - y#148 <= 1
cst597: y#149 - x#9 <= 0
cst598: y#149 - x#10 <= 0
cst599: x#9 + x#10 - y#149 <= 1
cst600: y#150 - x#9 <= 0
cst601: y#150 - x#11 <= 0
cst602: x#9 + x#11 - y#150 <= 1
cst603: y#151 - x#9 <= 0
cst604: y#151 - x#12 <= 0
cst605: x#9 + x#12 - y#151 <= 1
cst606: y#152 - x#9 <= 0
cst607: y#152 - x#13 <= 0
cst608: x#9 + x#13 - y#152 <= 1
cst609: y#153 - x#10 <= 0
cst610: y#153 - x#11 <= 0
cst611: x#10 + x#11 - y#153 <= 1
cst612: y#154 - x#10 <= 0
cst613: y#154 - x#12 <= 0
cst614: x#10 + x#12 - y#154 <= 1
cst615: y#155 - x#10 <= 0
cst616: y#155 - x#13 <= 0
cst617: x#10 + x#13 - y#155 <= 1
cst618: y#156 - x#10 <= 0
cst619: y#156 - x#14 <= 0
cst620: x#10 + x#14 - y#156 <= 1
cst621: y#157 - x#11 <= 0
cst622: y#157 - x#12 <= 0
cst623: x#11 + x#12 - y#157 <= 1
cst624: y#158 - x#11 <= 0
cst625: y#158 - x#13 <= 0
cst626: x#11 + x#13 - y#158 <= 1
cst627: y#159 - x#11 <= 0
cst628: y#159 - x#14 <= 0
cst629: x#11 + x#14 - y#159 <= 1
cst630: y#160 - x#11 <= 0
cst631: y#160 - x#15 <= 0
cst632: x#11 + x#15 - y#160 <= 1
cst633: y#161 - x#12 <= 0
cst634: y#161 - x#13 <= 0
cst635: x#12 + x#13 - y#161 <= 1
cst636: y#162 - x#12 <= 0
cst637: y#162 - x#14 <= 0
cst638: x#12 + x#14 - y#162 <= 1
cst639: y#163 - x#12 <= 0
cst640: y#163 - x#15 <= 0
cst641: x#12 + x#15 - y#163 <= 1
cst642: y#164 - x#12 <= 0
cst643: y#164 - x#16 <= 0
cst644: x#12 + x#16 - y#164 <= 1
cst645: y#165 - x#13 <= 0
cst646: y#165 - x#14 <= 0
cst647: x#13 + x#14 - y#165 <= 1
cst648: y#166 - x#13 <= 0
cst649: y#166 - x#15 <= 0
cst650: x#13 + x#15 - y#166 <= 1
cst651: y#167 - x#13 <= 0
cst652: y#167 - x#16 <= 0
cst653: x#13 + x#16 - y#167 <= 1
cst654: y#168 - x#13 <= 0
cst655: y#168 - x#17 <= 0
cst656: x#13 + x#17 - y#168 <= 1
cst657: y#169 - x#14 <= 0
cst658: y#169 - x#15 <= 0
cst659: x#14 + x#15 - y#169 <= 1
cst660: y#170 - x#14 <= 0
cst661: y#170 - x#16 <= 0
cst662: x#14 + x#16 - y#170 <= 1
cst663: y#171 - x#14 <= 0
cst664: y#171 - x#17 <= 0
cst665: x#14 + x#17 - y#171 <= 1
cst666: y#172 - x#14 <= 0
cst667: y#172 - x#18 <= 0
cst668: x#14 + x#18 - y#172 <= 1
cst669: y#173 - x#15 <= 0
cst670: y#173 - x#16 <= 0
cst671: x#15 + x#16 - y#173 <= 1
cst672: y#174 - x#15 <= 0
cst673: y#174 - x#17 <= 0
cst674: x#15 + x#17 - y#174 <= 1
cst675: y#175 - x#15 <= 0
cst676: y#175 - x#18 <= 0
cst677: x#15 + x#18 - y#175 <= 1
cst678: y#176 - x#15 <= 0
cst679: y#176 - x#19 <= 0
cst680: x#15 + x#19 - y#176 <= 1
cst681: y#177 - x#16 <= 0
cst682: y#177 - x#17 <= 0
cst683: x#16 + x#17 - y#177 <= 1
cst684: y#178 - x#16 <= 0
cst685: y#178 - x#18 <= 0
cst686: x#16 + x#18 - y#178 <= 1
cst687: y#179 - x#16 <= 0
cst688: y#179 - x#19 <= 0
cst689: x#16 + x#19 - y#179 <= 1
cst690: y#180 - x#16 <= 0
cst691: y#180 - x#20 <= 0
cst692: x#16 + x#20 - y#180 <= 1
cst693: y#181 - x#17 <= 0
cst694: y#181 - x#18 <= 0
cst695: x#17 + x#18 - y#181 <= 1
cst696: y#182 - x#17 <= 0
cst697: y#182 - x#19 <= 0
cst698: x#17 + x#19 - y#182 <= 1
cst699: y#183 - x#17 <= 0
cst700: y#183 - x#20 <= 0
cst701: x#17 + x#20 - y#183 <= 1
cst702: y#184 - x#18 <= 0
cst703: y#184 - x#19 <= 0
cst704: x#18 + x#19 - y#184 <= 1
cst705: y#185 - x#18 <= 0
cst706: y#185 - x#20 <= 0
cst707: x#18 + x#20 - y#185 <= 1
cst708: y#186 - x#19 <= 0
cst709: y#186 - x#20 <= 0
cst710: x#19 + x#20 - y#186 <= 1
cst711: y#187 - x#1 <= 0
cst712: x#1 - y#187 <= 0
cst713: y#188 - x#2 <= 0
cst714: x#2 - y#188 <= 0
cst715: y#189 - x#3 <= 0
cst716: x#3 - y#189 <= 0
cst717: y#190 - x#4 <= 0
cst718: x#4 - y#190 <= 0
cst719: y#191 - x#5 <= 0
cst720: x#5 - y#191 <= 0
cst721: y#192 - x#6 <= 0
cst722: x#6 - y#192 <= 0
cst723: y#193 - x#7 <= 0
cst724: x#7 - y#193 <= 0
cst725: y#194 - x#8 <= 0
cst726: x#8 - y#194 <= 0
cst727: y#195 - x#9 <= 0
cst728: x#9 - y#195 <= 0
cst729: y#196 - x#10 <= 0
cst730: x#10 - y#196 <= 0
cst731: y#197 - x#11 <= 0
cst732: x#11 - y#197 <= 0
cst733: y#198 - x#12 <= 0
cst734: x#12 - y#198 <= 0
cst735: y#199 - x#13 <= 0
cst736: x#13 - y#199 <= 0
cst737: y#200 - x#14 <= 0
cst738: x#14 - y#200 <= 0
cst739: y#201 - x#15 <= 0
cst740: x#15 - y#201 <= 0
cst741: y#202 - x#16 <= 0
cst742: x#16 - y#202 <= 0
cst743: y#203 - x#17 <= 0
cst744: x#17 - y#203 <= 0
cst745: y#204 - x#18 <= 0
cst746: x#18 - y#204 <= 0
cst747: y#205 - x#19 <= 0
cst748: x#19 - y#205 <= 0
cst749: y#206 - x#20 <= 0
cst750: x#20 - y#206 <= 0
Bounds
z free
Binary
x#1 x#2 x#3 x#4 x#5 x#6 x#7 x#8 x#9 x#10 x#11 x#12 x#13 x#14 x#15 x#16 x#17 x#18 x#19 x#20y#0 y#1 y#2 y#3 y#4 y#5 y#6 y#7 y#8 y#9 y#10 y#11 y#12 y#13 y#14 y#15 y#16 y#17 y#18 y#19 y#20 y#21 y#22 y#23 y#24 y#25 y#26 y#27 y#28 y#29 y#30 y#31 y#32 y#33 y#34 y#35 y#36 y#37 y#38 y#39 y#40 y#41 y#42 y#43 y#44 y#45 y#46 y#47 y#48 y#49 y#50 y#51 y#52 y#53 y#54 y#55 y#56 y#57 y#58 y#59 y#60 y#61 y#62 y#63 y#64 y#65 y#66 y#67 y#68 y#69 y#70 y#71 y#72 y#73 y#74 y#75 y#76 y#77 y#78 y#79 y#80 y#81 y#82 y#83 y#84 y#85 y#86 y#87 y#88 y#89 y#90 y#91 y#92 y#93 y#94 y#95 y#96 y#97 y#98 y#99 y#100 y#101 y#102 y#103 y#104 y#105 y#106 y#107 y#108 y#109 y#110 y#111 y#112 y#113 y#114 y#115 y#116 y#117 y#118 y#119 y#120 y#121 y#122 y#123 y#124 y#125 y#126 y#127 y#128 y#129 y#130 y#131 y#132 y#133 y#134 y#135 y#136 y#137 y#138 y#139 y#140 y#141 y#142 y#143 y#144 y#145 y#146 y#147 y#148 y#149 y#150 y#151 y#152 y#153 y#154 y#155 y#156 y#157 y#158 y#159 y#160 y#161 y#162 y#163 y#164 y#165 y#166 y#167 y#168 y#169 y#170 y#171 y#172 y#173 y#174 y#175 y#176 y#177 y#178 y#179 y#180 y#181 y#182 y#183 y#184 y#185 y#186 y#187 y#188 y#189 y#190 y#191 y#192 y#193 y#194 y#195 y#196 y#197 y#198 y#199 y#200 y#201 y#202 y#203 y#204 y#205 y#206
End
